53 120 58 49 72 91 99 73 92 38 79 95 116 24 15 29 77 103 81 87 12 65 56 74 75 52 9 57 82 101 123 111 119 84 36 32 113 98 25 48 68 63 110 94 89 19 27 100 31 17 34 43 104 127 107 70 97 7 26 88 86 69 64 124 129 61 109 76 11 5 45 16 1 41 71 39 117 112 128 105 62 115 28 66 85 125 90 78 121 59 30 83 3 130 50 2 54 35 118 20 80 46 18 8 108 114 126 21 33 22 37 40 47 23 122 96 13 67 14 10 102 6 55 60 51 42 44 93 4 106 